p tw 104 116
1 2
2 17
3 8
4 5
5 6
5 8
6 7
8 9
9 10
10 11
11 12
12 13
13 14
14 15
14 70
15 16
16 18
17 28
18 19
18 34
19 20
20 21
21 22
22 23
23 24
23 29
24 25
25 26
26 27
27 32
28 39
28 83
29 30
30 31
31 32
32 33
33 6
34 35
35 36
36 37
37 38
37 102
38 40
39 50
40 41
41 42
42 43
43 44
44 45
45 46
46 47
46 55
47 48
48 49
49 51
50 61
51 52
52 53
53 54
54 55
55 56
56 57
57 58
58 59
59 60
60 62
60 67
61 72
62 63
63 64
64 65
65 66
66 67
67 68
68 69
69 6
70 71
71 73
72 6
73 74
73 102
74 75
74 102
75 76
76 77
77 78
77 102
78 79
79 80
80 81
81 82
82 84
83 94
84 85
85 86
86 87
87 88
87 100
88 89
89 90
89 91
90 91
91 92
92 93
93 95
94 3
95 96
96 97
97 98
98 99
99 100
100 101
101 6
102 103
103 104
104 4
